k = 20;
b = 10;
AtomicConstraints =  [|
1, 2|
	1, 3|
	1, 4|
	1, 5|
	1, 6|
	1, 7|
	2, 3|
	2, 4|
	2, 5|
	2, 6|
	2, 7|
	3, 4|
	3, 5|
	3, 6|
	3, 7|
	4, 5|
	4, 6|
	4, 7|
	5, 6|
	5, 7|
	6, 7|
	8, 4|
	8, 5|
	8, 6|
	8, 7|
	8, 9|
	8, 10|
	9, 6|
	9, 7|
	9, 10|
	12, 20|
	12, 14|
	12, 13|
	11, 12|
	11, 20|
	11, 19|
	11, 14|
	11, 13|
	16, 17|
	15, 17|
	15, 16|
	19, 20|
	18, 17|
	18, 16|
	18, 20|
	18, 19|
	13, 20|
	13, 14|];
DisjunctiveConstraints =  [|1, 17, 1, 7|
	1, 16, 1, 6|
	1, 15, 1, 5|
	1, 14, 1, 4|
	2, 17, 2, 7|
	2, 16, 2, 6|
	3, 17, 3, 7|
	3, 16, 3, 6|
	8, 20, 8, 10|];
SoftAtomicConstraints =  [|
11, 15|
12, 16|
13, 17|];
DirectSuccessors =  [];
